
240.0
220.0
220.0
220.0
240.0
380.0
260.0
220.0
220.0
220.0
220.0
220.0
330.0
250.0
220.0
220.0
220.0
220.0
220.0
220.0
220.0
220.0
220.0
220.0
220.0
220.0
220.0
220.0
220.0
220.0
220.0
220.0
220.0
220.0
220.0
220.0
220.0
240.0
220.0
220.0
220.0
220.0
220.0
220.0
410.0
220.0
220.0
220.0
220.0
220.0